NAME : mar30_100_4
COMMENT : Data set with 30 points
COMMENT : CIn-UFPE
COMMENT : Contributed by Marcelo Lacerda
TYPE : TSP
DIMENSION : 30
EDGE_WEIGHT_TYPE : EUC_2D
NODE_COORD_SECTION
1 18 62
2 10 39
3 49 33
4 88 23
5 33 54
6 44 43
7 87 21
8 88 73
9 99 56
10 40 67
11 58 2
12 36 55
13 82 18
14 83 79
15 40 51
16 90 69
17 41 4
18 72 38
19 19 86
20 60 32
21 39 47
22 82 90
23 96 89
24 53 5
25 31 14
26 71 33
27 3 58
28 82 52
29 97 52
30 96 6
EOF
